100
32
6
29
16
11
31
24
31
5
8
14
12
28
5
5
4
18
5
18
16
3
3
2
19
3
1
1
1
1
3
2
3
1
17
2
3
1
4
1
1
23
1
1
2
2
3
2
5
1
4
19
5
2
2
3
1
1
3
3
17
1
2
1
1
1
2
1
4
1
1
17
2
4
1
2
1
17
7
3
3
2
7
1
1
2
1
21
5
2
1
2
17
1
1
2
1
3
1
4
1
1